p cnf 30 77
a 9 21 0
e 1 2 3 4 5 6 7 8 10 11 12 13 14 15 16 17 18 19 20 22 23 24 25 26 27 28 29 30 0
-3 1 0
-3 2 0
-1 -2 3 0
-5 -6 -7 0
5 6 -7 0
-5 6 7 0
5 -6 7 0
-8 4 0
-8 7 0
-4 -7 8 0
9 3 0
9 -8 0
-3 8 -9 0
-11 -6 0
-11 -5 0
6 5 11 0
-12 -10 0
-12 11 0
10 -11 12 0
-14 13 0
-14 -5 0
-13 5 14 0
15 -12 0
15 14 0
12 -14 -15 0
16 -9 0
16 -15 0
9 15 -16 0
-18 17 0
-18 -4 0
-17 4 18 0
19 -6 0
19 -6 0
6 -19 0
20 18 0
20 19 0
-18 -19 -20 0
21 -6 0
21 10 0
6 -10 -21 0
22 21 0
22 6 0
-21 -6 -22 0
11 -5 -23 0
-11 5 -23 0
11 5 23 0
-11 -5 23 0
24 -22 0
24 -23 0
22 23 -24 0
25 20 0
25 24 0
-20 -24 -25 0
26 16 0
26 25 0
-16 -25 -26 0
27 -10 0
27 2 0
10 -2 -27 0
6 13 -28 0
-6 -13 -28 0
6 -13 28 0
-6 13 28 0
-29 -27 0
-29 28 0
27 -28 29 0
30 26 0
30 -29 0
-26 29 -30 0
-15 -8 12 14 -20 -5 0
20 -23 7 19 3 -9 21 0
27 -29 3 -25 0
-7 19 -17 -8 15 0
-21 -23 -13 -5 16 1 0
-2 16 -27 -8 18 -12 3 0
13 -21 -23 27 -14 0
30 0
